n_res = 4;
rc = [ 0, 0, 0, 0 ];
n_tasks = 30;
d = [ 3, 4, 10, 7, 2, 6, 9, 8, 8, 7, 2, 7, 6, 3, 6, 9, 7, 5, 7, 4, 9, 9, 1, 3, 5, 5, 8, 3, 3, 3 ];
rr = [| 0, 0, 0, 0, 0, 0, 0, 0, 0, 0, 0, 0, 0, 0, 0, 0, 0, 0, 0, 0, 0, 0, 0, 0, 0, 0, 0, 0, 0, 0
      | 0, 0, 0, 0, 0, 0, 0, 0, 0, 0, 0, 0, 0, 0, 0, 0, 0, 0, 0, 0, 0, 0, 0, 0, 0, 0, 0, 0, 0, 0
      | 0, 0, 0, 0, 0, 0, 0, 0, 0, 0, 0, 0, 0, 0, 0, 0, 0, 0, 0, 0, 0, 0, 0, 0, 0, 0, 0, 0, 0, 0
      | 0, 0, 0, 0, 0, 0, 0, 0, 0, 0, 0, 0, 0, 0, 0, 0, 0, 0, 0, 0, 0, 0, 0, 0, 0, 0, 0, 0, 0, 0 |];
suc = [ { 6, 9, 10 },
       { 5, 12, 17 },
       { 4, 7, 8 },
       { 11, 16, 18 },
       { 9, 15, 22 },
       { 13, 21 },
       { 16, 19, 22 },
       { 9, 13, 14 },
       { 20 },
       { 11, 15, 17 },
       { 12, 22, 23 },
       { 29, 30 },
       { 18, 20, 24 },
       { 15, 23 },
       { 18, 19, 20 },
       { 17, 21, 23 },
       { 25, 28 },
       { 26 },
       { 21, 26 },
       { 27 },
       { 24, 25 },
       { 24, 25, 28 },
       { 26, 30 },
       { 29, 30 },
       { 27 },
       { 27, 28 },
       { 29 },
       {  },
       {  },
       {  } ];
